% Definici칩n de la instancia

num_workers = 3;
num_tasks = 3;
num_levels = 5;
P = 500;
N = 2;

fixed_cost = [
    [50, 60, 70],  % Costos fijos del trabajador 1 para tareas 1, 2, 3
    [40, 50, 60],  % Costos fijos del trabajador 2 para tareas 1, 2, 3
    [30, 40, 50]   % Costos fijos del trabajador 3 para tareas 1, 2, 3
];

time_cost = [
    [10, 12, 14],  % Costos por unidad de tiempo del trabajador 1 para tareas 1, 2, 3
    [8, 10, 12],   % Costos por unidad de tiempo del trabajador 2 para tareas 1, 2, 3
    [6, 8, 10]     % Costos por unidad de tiempo del trabajador 3 para tareas 1, 2, 3
];

task_time = [5, 10, 15];  % Tiempo necesario para completar las tareas 1, 2, 3

max_worker_time = [10, 15, 20];  % Tiempo m치ximo que los trabajadores 1, 2, 3 pueden trabajar

worker_level = [5, 3, 4];  % Nivel de especializaci칩n de los trabajadores 1, 2, 3

task_level = [3, 2, 4];  % Nivel de especializaci칩n requerido para las tareas 1, 2, 3